\ENCODING=ISO-8859-1
\Problem name: RescheduleFixture_balanced.lp_conflict

Maximize
 obj:
Subject To
 c11589: Memphis_Grizzlies_Brooklyn_Nets_2021m01m08_00.00.00_2021m01m08_00.00.00_2021m01m08_00.00.00#293
         >= 2
Bounds
 0 <= Memphis_Grizzlies_Brooklyn_Nets_2021m01m08_00.00.00_2021m01m08_00.00.00_2021m01m08_00.00.00#293 <= 1
Binaries
 Memphis_Grizzlies_Brooklyn_Nets_2021m01m08_00.00.00_2021m01m08_00.00.00_2021m01m08_00.00.00#293 
End
